SCIP version 5.0.0 [precision: 8 byte] [memory: block] [mode: optimized] [LP solver: NONE] [GitHash: 3bbd232]
Copyright (C) 2002-2017 Konrad-Zuse-Zentrum fuer Informationstechnik Berlin (ZIB)

External codes: 
  Readline EditLine w  GNU library for command line editing (gnu.org/s/readline)
  CppAD 20160000.1     Algorithmic Differentiation of C++ algorithms developed by B. Bell (www.coin-or.org/CppAD)
  ZLIB 1.2.5           General purpose compression library by J. Gailly and M. Adler (zlib.net)
  GMP 6.1.2            GNU Multiple Precision Arithmetic Library developed by T. Granlund (gmplib.org)

user parameter file <scip.set> not found - using default parameters

read problem <../../Split_data/output/spectf/0/1_sample_spectf.logreg>
============

File name	:	../../Split_data/output/spectf/0/1_sample_spectf.logreg
Problem name 	:	1_sample_spectf
Number of data	:	213
Number of var	:	44
The given data has linear independence

[dim=1] time: 0.013701
[dim=2] time: 0.022236
[dim=3] time: 0.029941
[dim=4] time: 0.043113
[dim=5] time: 0.050456
[dim=6] time: 0.056919
[dim=7] time: 0.063336
[dim=8] time: 0.069417
[dim=9] time: 0.074911
[dim=10] time: 0.080717
[dim=11] time: 0.086313
[dim=12] time: 0.09165
[dim=13] time: 0.096647
[dim=14] time: 0.101881
[dim=15] time: 0.106563
[dim=16] time: 0.111387
[dim=17] time: 0.116205
[dim=18] time: 0.121085
[dim=19] time: 0.125936
[dim=20] time: 0.130707
[dim=21] Time of forward = 0.135384sec.
AIC: 110.821
k: 20

[dim=44] time: 0.031801
[dim=43] time: 0.045237
[dim=42] time: 0.058812
[dim=41] time: 0.07531
[dim=40] time: 0.090568
[dim=39] time: 0.106135
[dim=38] time: 0.118
[dim=37] time: 0.129439
[dim=36] time: 0.144433
[dim=35] time: 0.157647
[dim=34] time: 0.171918
[dim=33] time: 0.184732
[dim=32] time: 0.196576
[dim=31] time: 0.206094
[dim=30] time: 0.216956
[dim=29] time: 0.22819
[dim=28] time: 0.239188
[dim=27] time: 0.250583
[dim=26] time: 0.257137
[dim=25] time: 0.266489
[dim=24] time: 0.273722
[dim=23] time: 0.285364
[dim=22] time: 0.294209
[dim=21] time: 0.300693
[dim=20] time: 0.310378
[dim=19] time: 0.318282
[dim=18] time: 0.325015
[dim=17] time: 0.329287
[dim=16] Time of backward = 0.334662sec.
AIC: 108.234
k: 17
